
Gurobi 9.1.1 (win64) logging started Sun Mar 20 16:39:01 2022

Changed value of parameter LogFile to ./Log/Pattern_Appro_solver_120_order_12_batch.log
   Prev:   Default: 
Gurobi Optimizer version 9.1.1 build v9.1.1rc0 (win64)
Thread count: 6 physical cores, 12 logical processors, using up to 12 threads
Optimize a model with 700 rows, 1920 columns and 8700 nonzeros
Model fingerprint: 0x6344a3f4
Variable types: 0 continuous, 1920 integer (1824 binary)
Coefficient statistics:
  Matrix range     [1e+00, 1e+01]
  Objective range  [1e+00, 4e+01]
  Bounds range     [1e+00, 2e+00]
  RHS range        [1e+00, 1e+01]
Found heuristic solution: objective 3346.0000000
Presolve removed 242 rows and 354 columns
Presolve time: 0.01s
Presolved: 458 rows, 1566 columns, 6462 nonzeros
Variable types: 0 continuous, 1566 integer (1494 binary)

Root relaxation: objective 1.171957e+03, 1863 iterations, 0.03 seconds

    Nodes    |    Current Node    |     Objective Bounds      |     Work
 Expl Unexpl |  Obj  Depth IntInf | Incumbent    BestBd   Gap | It/Node Time

     0     0 1171.95714    0  133 3346.00000 1171.95714  65.0%     -    0s
H    0     0                    2462.0000000 1171.95714  52.4%     -    0s
H    0     0                    2448.0000000 1171.95714  52.1%     -    0s
H    0     0                    2253.0000000 1179.91270  47.6%     -    0s
H    0     0                    2170.0000000 1179.91270  45.6%     -    0s
     0     0 1237.27379    0  290 2170.00000 1237.27379  43.0%     -    0s
H    0     0                    2144.0000000 1237.27379  42.3%     -    0s
     0     0 1238.52747    0  287 2144.00000 1238.52747  42.2%     -    0s
     0     0 1238.52747    0  284 2144.00000 1238.52747  42.2%     -    0s
     0     0 1238.52747    0  287 2144.00000 1238.52747  42.2%     -    0s
H    0     0                    2140.0000000 1238.52747  42.1%     -    0s
H    0     0                    2138.0000000 1238.52747  42.1%     -    0s
H    0     0                    2132.0000000 1238.52747  41.9%     -    0s
H    0     0                    2128.0000000 1238.52747  41.8%     -    0s
     0     0 1265.28023    0  397 2128.00000 1265.28023  40.5%     -    0s
H    0     0                    2110.0000000 1265.28023  40.0%     -    0s
     0     0 1272.62978    0  442 2110.00000 1272.62978  39.7%     -    0s
H    0     0                    2093.0000000 1272.62978  39.2%     -    0s
H    0     0                    2079.0000000 1272.62978  38.8%     -    0s
     0     0 1274.97316    0  497 2079.00000 1274.97316  38.7%     -    0s
     0     0 1275.34431    0  475 2079.00000 1275.34431  38.7%     -    0s
H    0     0                    2072.0000000 1275.34431  38.4%     -    0s
     0     0 1275.66990    0  512 2072.00000 1275.66990  38.4%     -    0s
     0     0 1275.70361    0  495 2072.00000 1275.70361  38.4%     -    0s
H    0     0                    2058.0000000 1275.70361  38.0%     -    0s
H    0     0                    2051.0000000 1275.70361  37.8%     -    0s
     0     0 1295.94623    0  613 2051.00000 1295.94623  36.8%     -    0s
H    0     0                    2046.0000000 1295.94623  36.7%     -    0s
H    0     0                    2045.0000000 1295.94623  36.6%     -    0s
     0     0 1301.92788    0  673 2045.00000 1301.92788  36.3%     -    0s
     0     0 1304.08179    0  688 2045.00000 1304.08179  36.2%     -    0s
     0     0 1304.86879    0  708 2045.00000 1304.86879  36.2%     -    0s
     0     0 1305.70178    0  706 2045.00000 1305.70178  36.2%     -    0s
     0     0 1305.92846    0  718 2045.00000 1305.92846  36.1%     -    0s
     0     0 1305.96837    0  723 2045.00000 1305.96837  36.1%     -    0s
H    0     0                    2041.0000000 1305.96837  36.0%     -    1s
H    0     0                    2033.0000000 1305.96837  35.8%     -    1s
     0     0 1317.79668    0  802 2033.00000 1317.79668  35.2%     -    1s
     0     0 1322.84697    0  852 2033.00000 1322.84697  34.9%     -    1s
     0     0 1324.77945    0  873 2033.00000 1324.77945  34.8%     -    1s
H    0     0                    2031.0000000 1324.77945  34.8%     -    1s
     0     0 1325.80114    0  889 2031.00000 1325.80114  34.7%     -    1s
     0     0 1326.23318    0  883 2031.00000 1326.23318  34.7%     -    1s
     0     0 1326.52410    0  895 2031.00000 1326.52410  34.7%     -    1s
     0     0 1326.60371    0  904 2031.00000 1326.60371  34.7%     -    1s
H    0     0                    2030.0000000 1326.60371  34.7%     -    1s
H    0     0                    2023.0000000 1326.60371  34.4%     -    1s
     0     0 1334.40261    0 1005 2023.00000 1334.40261  34.0%     -    1s
     0     0 1337.87006    0 1050 2023.00000 1337.87006  33.9%     -    2s
     0     0 1340.71923    0 1082 2023.00000 1340.71923  33.7%     -    2s
     0     0 1341.83762    0 1097 2023.00000 1341.83762  33.7%     -    2s
     0     0 1342.35042    0 1116 2023.00000 1342.35042  33.6%     -    2s
     0     0 1342.64814    0 1130 2023.00000 1342.64814  33.6%     -    2s
     0     0 1342.81472    0 1134 2023.00000 1342.81472  33.6%     -    3s
     0     0 1346.77410    0 1184 2023.00000 1346.77410  33.4%     -    3s
     0     0 1348.34359    0 1206 2023.00000 1348.34359  33.3%     -    4s
     0     0 1348.94667    0 1221 2023.00000 1348.94667  33.3%     -    4s
H    0     0                    2017.0000000 1348.94667  33.1%     -    4s
     0     0 1349.42048    0 1238 2017.00000 1349.42048  33.1%     -    4s
     0     0 1349.60756    0 1242 2017.00000 1349.60756  33.1%     -    4s
     0     0 1350.74366    0 1260 2017.00000 1350.74366  33.0%     -    5s
     0     0 1350.74366    0 1255 2017.00000 1350.74366  33.0%     -    5s
     0     2 1350.74366    0 1253 2017.00000 1350.74366  33.0%     -    5s
    25    32 1397.52665    5 1124 2017.00000 1366.66348  32.2%  1936   10s
H   63    71                    2009.0000000 1366.66348  32.0%  1908   15s
H   94   107                    2002.0000000 1366.66348  31.7%  1625   16s
H  125   135                    1996.0000000 1366.66348  31.5%  1395   17s
   208   233 1758.60485   37  711 1996.00000 1366.66348  31.5%  1090   20s
H  221   233                    1995.0000000 1366.66348  31.5%  1041   20s
H  255   259                    1990.0000000 1366.66348  31.3%   959   20s
H  276   283                    1982.0000000 1366.66348  31.0%   909   21s
H  313   333                    1980.0000000 1366.66348  31.0%   858   22s
   438   409 1442.86911   10 1147 1980.00000 1377.94949  30.4%   772   25s
   674   649 1753.90870   40  772 1980.00000 1377.94949  30.4%   682   30s
   857   771 1446.85845    9 1174 1980.00000 1391.66365  29.7%   643   35s
   958   877 1661.41210   22 1106 1980.00000 1391.66365  29.7%   665   40s
  1063  1004 1829.06989   39  735 1980.00000 1391.66365  29.7%   657   45s
  1281  1110 1946.67473   60  597 1980.00000 1393.29461  29.6%   637   50s
  1302  1124 1973.40091   41 1320 1980.00000 1393.29461  29.6%   626   55s
  1314  1140 1393.29461   16 1269 1980.00000 1393.29461  29.6%   636   60s

Cutting planes:
  Gomory: 24
  Cover: 203
  Implied bound: 5
  Clique: 134
  MIR: 25
  StrongCG: 2
  Flow cover: 123
  Zero half: 12
  RLT: 53
  Relax-and-lift: 4

Explored 1321 nodes (861657 simplex iterations) in 60.06 seconds
Thread count was 12 (of 12 available processors)

Solution count 10: 1980 1982 1990 ... 2030

Time limit reached
Best objective 1.980000000000e+03, best bound 1.394000000000e+03, gap 29.5960%

Gurobi 9.1.1 (win64) logging started Sun Mar 20 16:40:01 2022

Changed value of parameter LogFile to ./Log/Pattern_Appro_solver_120_order_12_batch.log
   Prev:   Default: 
Gurobi Optimizer version 9.1.1 build v9.1.1rc0 (win64)
Thread count: 6 physical cores, 12 logical processors, using up to 12 threads
Optimize a model with 700 rows, 1920 columns and 8700 nonzeros
Model fingerprint: 0x7a320435
Variable types: 0 continuous, 1920 integer (1824 binary)
Coefficient statistics:
  Matrix range     [1e+00, 1e+01]
  Objective range  [1e+00, 1e+00]
  Bounds range     [1e+00, 2e+00]
  RHS range        [1e+00, 1e+01]
Found heuristic solution: objective 266.0000000
Presolve removed 224 rows and 346 columns
Presolve time: 0.01s
Presolved: 476 rows, 1574 columns, 6628 nonzeros
Variable types: 0 continuous, 1574 integer (1490 binary)

Root relaxation: objective 8.380556e+01, 2289 iterations, 0.04 seconds

    Nodes    |    Current Node    |     Objective Bounds      |     Work
 Expl Unexpl |  Obj  Depth IntInf | Incumbent    BestBd   Gap | It/Node Time

     0     0   83.80556    0  145  266.00000   83.80556  68.5%     -    0s
H    0     0                     203.0000000   83.80556  58.7%     -    0s
H    0     0                     202.0000000   83.80556  58.5%     -    0s
H    0     0                     201.0000000   83.80556  58.3%     -    0s
H    0     0                     196.0000000   84.26389  57.0%     -    0s
H    0     0                     191.0000000   84.26389  55.9%     -    0s
H    0     0                     188.0000000   84.26389  55.2%     -    0s
H    0     0                     186.0000000   84.26389  54.7%     -    0s
     0     0   87.32635    0  300  186.00000   87.32635  53.1%     -    0s
     0     0   87.40465    0  291  186.00000   87.40465  53.0%     -    0s
     0     0   87.41932    0  289  186.00000   87.41932  53.0%     -    0s
     0     0   87.42170    0  303  186.00000   87.42170  53.0%     -    0s
H    0     0                     185.0000000   87.42170  52.7%     -    0s
     0     0   87.42303    0  310  185.00000   87.42303  52.7%     -    0s
H    0     0                     184.0000000   87.42303  52.5%     -    0s
H    0     0                     183.0000000   87.42303  52.2%     -    0s
H    0     0                     181.0000000   87.42303  51.7%     -    0s
     0     0   89.56038    0  452  181.00000   89.56038  50.5%     -    0s
H    0     0                     180.0000000   89.56038  50.2%     -    0s
     0     0   89.81608    0  473  180.00000   89.81608  50.1%     -    0s
     0     0   89.96699    0  468  180.00000   89.96699  50.0%     -    0s
     0     0   89.99387    0  453  180.00000   89.99387  50.0%     -    0s
     0     0   89.99566    0  457  180.00000   89.99566  50.0%     -    0s
H    0     0                     179.0000000   89.99566  49.7%     -    0s
     0     0   91.66343    0  666  179.00000   91.66343  48.8%     -    0s
     0     0   92.05673    0  707  179.00000   92.05673  48.6%     -    0s
     0     0   92.18408    0  737  179.00000   92.18408  48.5%     -    0s
     0     0   92.21757    0  727  179.00000   92.21757  48.5%     -    0s
     0     0   92.24032    0  737  179.00000   92.24032  48.5%     -    0s
     0     0   92.24433    0  738  179.00000   92.24433  48.5%     -    0s
     0     0   93.09744    0  828  179.00000   93.09744  48.0%     -    1s
     0     0   93.43520    0  897  179.00000   93.43520  47.8%     -    1s
     0     0   93.52054    0  914  179.00000   93.52054  47.8%     -    1s
     0     0   93.57759    0  955  179.00000   93.57759  47.7%     -    1s
     0     0   93.62826    0  962  179.00000   93.62826  47.7%     -    1s
H    0     0                     178.0000000   93.62826  47.4%     -    1s
     0     0   93.63861    0  965  178.00000   93.63861  47.4%     -    1s
     0     0   94.17318    0 1012  178.00000   94.17318  47.1%     -    2s
     0     0   94.36861    0 1083  178.00000   94.36861  47.0%     -    2s
H    0     0                     177.0000000   94.36861  46.7%     -    2s
     0     0   94.50019    0 1092  177.00000   94.50019  46.6%     -    2s
     0     0   94.54721    0 1122  177.00000   94.54721  46.6%     -    2s
     0     0   94.57951    0 1145  177.00000   94.57951  46.6%     -    3s
     0     0   94.59424    0 1148  177.00000   94.59424  46.6%     -    3s
     0     0   94.84394    0 1196  177.00000   94.84394  46.4%     -    3s
     0     0   94.93656    0 1225  177.00000   94.93656  46.4%     -    3s
     0     0   94.97561    0 1226  177.00000   94.97561  46.3%     -    4s
     0     0   94.99721    0 1230  177.00000   94.99721  46.3%     -    4s
     0     0   95.11847    0 1244  177.00000   95.11847  46.3%     -    4s
     0     0   95.18392    0 1270  177.00000   95.18392  46.2%     -    4s
     0     0   95.20859    0 1281  177.00000   95.20859  46.2%     -    4s
     0     0   95.22288    0 1290  177.00000   95.22288  46.2%     -    4s
     0     0   95.27495    0 1300  177.00000   95.27495  46.2%     -    5s
     0     0   95.27495    0 1300  177.00000   95.27495  46.2%     -    5s
     0     2   95.27495    0 1298  177.00000   95.27495  46.2%     -    5s
    25    32   96.51237    6 1254  177.00000   95.88687  45.8%  1658   10s
H   32    38                     176.0000000   95.88687  45.5%  1496   10s
H   66    71                     175.0000000   95.88687  45.2%  1424   13s
    85    95  100.31023   12 1189  175.00000   95.88687  45.2%  1380   15s
H  140   154                     174.0000000   95.88687  44.9%  1223   18s
H  177   183                     173.0000000   95.88687  44.6%  1160   19s
   182   200  112.75861   25 1032  173.00000   95.88687  44.6%  1155   21s
H  223   241                     172.0000000   95.88687  44.3%  1073   22s
H  281   296                     170.0000000   95.88687  43.6%   964   23s
H  357   375                     169.0000000   95.88687  43.3%   850   24s
   374   423  144.80266   53  174  169.00000   95.88687  43.3%   823   25s
H  441   484                     168.0000000   95.88687  42.9%   728   25s
H  728   700                     167.0000000   95.88687  42.6%   541   28s
   769   740  140.98942   50  821  167.00000   95.88687  42.6%   544   30s
H  863   846                     166.0000000   95.88687  42.2%   568   33s
   993   932  106.83807    5 1134  166.00000   96.30220  42.0%   549   35s
  1195  1136  119.80698   26 1026  166.00000   96.30220  42.0%   562   40s
  1307  1204  119.83044   38 1300  166.00000   96.30220  42.0%   551   47s
  1319  1212  156.04325   93 1238  166.00000   96.30220  42.0%   546   50s
  1336  1223  164.11111   74 1329  166.00000   96.30220  42.0%   539   55s

Cutting planes:
  Gomory: 18
  Cover: 272
  Implied bound: 5
  Clique: 158
  MIR: 25
  StrongCG: 3
  Flow cover: 125
  Zero half: 11
  RLT: 97
  Relax-and-lift: 5

Explored 1378 nodes (794624 simplex iterations) in 60.02 seconds
Thread count was 12 (of 12 available processors)

Solution count 10: 166 167 168 ... 176

Time limit reached
Best objective 1.660000000000e+02, best bound 9.700000000000e+01, gap 41.5663%
